
  12    4
  10   10   10   10

   0   0   0   0   0   4 2 3 6 11 
   7  10  10  10  10   2 5 4 
   8  10  10  10  10   4 10 9 8 7 
   9  10  10  10  10   2 9 7 
   7  10  10  10  10   1 8 
   6  10  10  10  10   1 7 
   8  10  10  10  10   1 12
   5  10  10  10  10   1 12
   4  10  10  10  10   1 12
   5  10  10  10  10   1 12
   7  10  10  10  10   1 12
   0   0   0   0   0   0 
